170
104
28
0
79
54
51
97
20
0
147
40
38
33
0
46
18
32
43
15
29
0
38
61
33
0
34
0
28
43
91
14
67
23
67
49
0
47
18
51
67
0
34
29
89
34
101
20
0
28
64
21
23
83
0
47
46
64
62
20
83
122
32
121
98
261
136
34
38
26
152
22
104
0
17
79
20
22
109
29
65
138
32
33
20
21
0
37
0
81
165
52
59
14
43
108
37
82
0
42
